c   #vars: 42   #clauses: 181   #literals: 536
c 
p cnf 42 181
-1 -2 0
-8 12 -19 22 0
-4 -5 0
-6 -7 0
-8 -9 0
-10 -11 0
-8 12 22 -40 0
13 16 17 -37 0
1 2 -29 42 0
-14 -15 0
-16 -17 0
-18 -19 0
29 -31 -32 -42 0
8 9 37 38 0
-20 -21 0
3 -22 29 -42 0
-23 -24 0
-25 -26 0
-27 -28 0
1 2 16 17 0
3 20 21 -22 0
18 19 31 32 0
-31 -32 0
-33 -34 0
-35 -36 0
-37 -38 0
-39 -40 0
10 11 39 40 0
-16 27 28 30 0
-6 16 17 41 0
20 21 39 40 0
-1 -16 0
-2 -17 0
6 7 27 28 0
-1 -25 0
-2 -26 0
-1 -27 0
-2 -28 0
16 17 -27 30 0
-1 -39 0
-2 -40 0
10 11 23 24 0
-8 27 28 30 0
-2 -41 0
8 9 -12 22 0
-1 -42 0
-1 16 17 41 0
-3 -20 0
-3 12 22 -40 0
3 -21 29 -42 0
-3 12 -19 22 0
8 9 -27 30 0
-8 25 26 30 0
6 7 37 38 0
-2 -3 29 42 0
-4 -18 0
-5 -19 0
29 37 38 -42 0
-4 -20 0
-5 -21 0
23 24 35 36 0
-4 -31 0
-5 -32 0
-25 27 28 30 0
-4 -35 0
-5 -36 0
4 5 35 36 0
-6 -27 0
-7 -28 0
-6 -33 0
-7 -34 0
-3 -24 29 42 0
-6 -37 0
-7 -38 0
10 11 31 32 0
25 26 -27 30 0
-7 -41 0
14 15 33 34 0
1 2 -6 41 0
27 28 33 34 0
1 2 -16 41 0
4 5 18 19 0
-8 -14 0
-9 -15 0
3 -22 29 -37 0
-9 -22 0
-3 29 37 38 0
-8 -23 0
-9 -24 0
-8 16 17 30 0
-9 -30 0
-24 29 -37 42 0
-8 -35 0
-9 -36 0
20 21 31 32 0
-8 -37 0
-9 -38 0
-2 29 -37 42 0
-10 -14 0
-11 -15 0
10 11 16 17 0
-10 -16 0
-11 -17 0
3 -8 -21 22 0
-10 -23 0
-11 -24 0
16 17 -25 30 0
-10 -31 0
-11 -32 0
3 -12 22 -29 0
-10 -39 0
-11 -40 0
8 9 -16 30 0
12 18 19 -40 0
3 -12 -21 22 0
13 -18 37 38 0
12 -19 39 40 0
8 9 14 15 0
13 -16 37 38 0
12 18 19 -22 0
-3 29 -31 -32 0
-12 -18 0
13 16 17 -18 0
3 20 21 -29 0
3 -21 29 -37 0
13 18 19 -37 0
4 5 20 21 0
-12 -39 0
13 -16 18 19 0
6 7 33 34 0
1 2 -24 42 0
-13 -17 0
8 9 35 36 0
23 24 -29 42 0
-13 -19 0
-2 23 24 42 0
-13 -38 0
-14 -31 0
-15 -32 0
25 26 37 38 0
-14 -33 0
-15 -34 0
20 21 33 34 0
-17 -30 0
10 11 14 15 0
-16 25 26 30 0
-17 -41 0
3 -8 22 -29 0
-18 -31 0
-19 -32 0
1 2 39 40 0
-3 8 9 22 0
-20 -31 0
-21 -32 0
25 26 35 36 0
-20 -33 0
-21 -34 0
-20 -39 0
-21 -40 0
29 -31 -32 -37 0
12 -22 39 40 0
1 2 27 28 0
-23 -35 0
-24 -36 0
14 15 31 32 0
-23 -42 0
6 7 -16 41 0
4 5 31 32 0
-26 -30 0
1 2 25 26 0
-25 -35 0
-26 -36 0
8 9 23 24 0
-25 -37 0
-26 -38 0
-28 -30 0
8 9 -25 30 0
-27 -33 0
-28 -34 0
-29 -38 0
-1 6 7 41 0
